NAME : eil101.1020.tour
COMMENT : Cost = 0_1020
COMMENT : Found by LKH [Keld Helsgaun] Thu Nov 16 16:23:51 2017
TYPE : TOUR
DIMENSION : 120
TOUR_SECTION
1
50
102
70
103
31
104
76
105
27
106
30
107
33
108
51
109
28
110
77
111
3
112
81
113
9
119
79
118
32
90
63
64
49
36
47
46
8
45
17
84
5
60
83
18
89
6
94
13
95
96
99
59
93
85
61
16
86
38
14
44
91
100
37
98
92
97
87
42
43
15
57
2
73
21
72
74
22
41
75
56
23
67
39
25
55
4
54
24
29
78
34
35
71
65
66
20
117
10
116
52
115
68
80
12
26
40
58
53
101
114
88
7
82
48
19
11
62
120
69
-1
EOF
